num_features = 90;
num_usage_limits = 3;
num_plans = 6;
num_addons = 0;

features = ["versionHistory","figmaEditor","advancedDrawingTools","autoLayout","pluginsAndWidgets","fileStorage","crossPlatform","sketchImport","viewPropertiesAndVariables","basicCodeGen","multiplayer","shareableLinks","onCanvasCommenting","observationMode","privateProjects","prototypeSharingPermissions","audioConversations","teamAndProjectTransfer","teams","branchingAndMerging","customWorkspaces","interactivePrototypes","videosInPrototypes","overlays","transitions","advancedAnimations","responsivePrototypingViewer","setVariable","conditionalLogic","multipleActions","expressions","variables","components","styles","uiKits","variableModes","teamLibraries","sharedFonts","organizationWideDesignSystems","inAppLibraryAnalytics","libraryAnalyticsAPI","defaultLibrariesByWorkspace","restApiForVariables","approvedLibraries","advancedInspection","readyForDev","compareChanges","annotations","assetExport","advancedCodeGen","devResources","figmaForVsCode","devPlugins","viewDetachedComponents","componentPlayground","privatePlugins","codeConnect","handoffProcessManagement","syncingWorkflowsThroughAPI","automatingWorkflowsThroughAPI","adminControlsForInspectPanel","restApis","thirdPartyIntegrations","liveEmbeds","webhooks","privatePluginsAndWidgets","passwordProtection","defaultRoles","pluginAndWidgetApproval","centralizedAdministration","domainCapture","linkAccessControls","singleSignOn","activityLogs","workspaceAdministration","guestAccessControls","defaultTeams","roleAssigmentViaSCIM","passwordProtectionRequired","teamCreationControls","externalContentsControls","activityLogsApi","windowsInstaller","idleSessionTimeout","euDataHosting","expiringPublicLinks","puglinAndWidgetsAnalytics","figmaSupportForum","figmaHelpCenter","onboardingPlanningAndSupport"];
usage_limits = ["versionHistoryDepth","variableModesLimits","unlimitedTeamsPermitted"];
plans = ["STARTER","PROFESSIONAL","ORGANIZATION","DEV_MODE_ORGANIZATION","ENTERPRISE","DEV_MODE_ENTERPRISE"];
addons = [];

plans_prices = [0,15,45,25,75,35];
addons_prices = [];

linked_features = array2d(USAGE_LIMITS, FEATURES, [
    % versionHistoryDepth
    1,0,0,0,0,0,0,0,0,0,0,0,0,0,0,0,0,0,0,0,0,0,0,0,0,0,0,0,0,0,0,0,0,0,0,0,0,0,0,0,0,0,0,0,0,0,0,0,0,0,0,0,0,0,0,0,0,0,0,0,0,0,0,0,0,0,0,0,0,0,0,0,0,0,0,0,0,0,0,0,0,0,0,0,0,0,0,0,0,0,
    % variableModesLimits
    0,0,0,0,0,0,0,0,0,0,0,0,0,0,0,0,0,0,0,0,0,0,0,0,0,0,0,0,0,0,0,0,0,0,0,1,0,0,0,0,0,0,0,0,0,0,0,0,0,0,0,0,0,0,0,0,0,0,0,0,0,0,0,0,0,0,0,0,0,0,0,0,0,0,0,0,0,0,0,0,0,0,0,0,0,0,0,0,0,0,
    % unlimitedTeamsPermitted
    0,0,0,0,0,0,0,0,0,0,0,0,0,0,0,0,0,0,1,0,0,0,0,0,0,0,0,0,0,0,0,0,0,0,0,0,0,0,0,0,0,0,0,0,0,0,0,0,0,0,0,0,0,0,0,0,0,0,0,0,0,0,0,0,0,0,0,0,0,0,0,0,0,0,0,0,0,0,0,0,0,0,0,0,0,0,0,0,0,0
]);

plans_features = array2d(PLANS, FEATURES, [
    % STARTER
    1,1,1,1,1,1,1,1,1,1,1,1,1,1,0,0,0,0,1,0,0,1,1,1,1,1,1,0,0,0,0,1,1,1,1,0,0,0,0,0,0,0,0,0,0,0,0,0,0,0,0,0,0,0,0,0,0,0,0,0,0,1,1,1,0,0,0,0,0,0,0,0,1,0,0,0,0,0,0,0,0,0,0,0,0,0,0,1,1,0,
    % PROFESSIONAL
    1,1,1,1,1,1,1,1,1,1,1,1,1,1,1,1,1,1,1,0,0,1,1,1,1,1,1,1,1,1,1,1,1,1,1,1,1,0,0,0,0,0,0,0,1,1,1,1,1,1,1,1,1,1,1,0,1,0,0,0,0,1,1,1,0,0,1,1,0,0,0,0,1,0,0,0,0,0,0,0,0,0,0,0,0,0,0,1,1,0,
    % ORGANIZATION
    1,1,1,1,1,1,1,1,1,1,1,1,1,1,1,1,1,1,1,1,0,1,1,1,1,1,1,1,1,1,1,1,1,1,1,1,1,1,1,1,0,0,0,0,1,1,1,1,1,1,1,1,1,1,1,1,1,1,0,0,0,1,1,1,1,1,1,1,1,1,1,1,1,1,0,0,0,0,0,0,0,0,0,0,0,0,0,1,1,0,
    % DEV_MODE_ORGANIZATION
    1,1,1,1,1,1,1,1,1,1,1,1,1,1,0,0,0,0,1,0,0,1,1,1,1,1,1,0,0,0,0,1,1,1,1,0,0,0,0,0,0,0,0,0,1,1,1,1,1,1,1,1,1,1,1,1,1,1,0,0,0,1,1,1,0,0,0,0,0,0,0,0,1,0,0,0,0,0,0,0,0,0,0,0,0,0,0,1,1,0,
    % ENTERPRISE
    1,1,1,1,1,1,1,1,1,1,1,1,1,1,1,1,1,1,1,1,1,1,1,1,1,1,1,1,1,1,1,1,1,1,1,1,1,1,1,1,1,1,1,1,1,1,1,1,1,1,1,1,1,1,1,1,1,1,1,1,1,1,1,1,1,1,1,1,1,1,1,1,1,1,1,1,1,1,1,1,1,1,1,1,1,1,1,1,1,1,
    % DEV_MODE_ENTERPRISE
    1,1,1,1,1,1,1,1,1,1,1,1,1,1,0,0,0,0,1,0,0,1,1,1,1,1,1,0,0,0,0,1,1,1,1,0,0,0,0,0,0,0,0,0,1,1,1,1,1,1,1,1,1,1,1,1,1,1,1,1,1,1,1,1,0,0,0,0,0,0,0,0,1,0,0,0,0,0,0,0,0,0,0,0,0,0,0,1,1,0
]);
plans_usage_limits = array2d(PLANS, USAGE_LIMITS, [
    % STARTER
    30,0,0,
    % PROFESSIONAL
    Infinity,4,0,
    % ORGANIZATION
    Infinity,4,1,
    % DEV_MODE_ORGANIZATION
    30,0,0,
    % ENTERPRISE
    Infinity,40,1,
    % DEV_MODE_ENTERPRISE
    30,0,0
]);

addons_features = array2d(ADDONS, FEATURES, [
]);
addons_usage_limits = array2d(ADDONS, USAGE_LIMITS, [
]);
addons_usage_limits_extensions = array2d(ADDONS, USAGE_LIMITS, [
]);
addons_available_for = array2d(ADDONS, PLANS, [
]);
addons_depends_on = array2d(ADDONS, ADDONS, [
]);
